NAME: ACTUAL_TOURS/amz2410
TYPE: TOUR
COMMENT: RouteID_feac4847-cde9-4eef-b906-caf4bc51f30b
DIMENSION: 100
TOUR_SECTION
29
38
5
58
13
40
94
42
7
80
3
56
48
60
95
35
82
23
22
54
41
57
19
18
36
49
26
33
71
73
72
92
78
37
98
87
59
69
84
74
34
4
8
96
97
44
6
93
85
64
90
43
55
12
21
51
47
16
68
2
10
70
66
11
86
88
76
46
15
52
91
9
53
17
77
25
65
100
63
14
83
45
99
20
61
79
30
50
67
39
27
32
1
62
89
75
24
81
28
31
-1
EOF
